c FILE /home/rafael/Documents/HappySet/MIHS/inputs/happygen/output/graph_d_regular_k20_p0.2_v100_20241127_084128.txt
c SOURCE This is a d-regular graph formed for the happy graph colouring problem.
c DESCRIPTION It was generated using the problem generator of Rhyd Lewis
c
c GRAPH STATS
c Seed                             = 2049230379
c Number of Nodes                  = 100
c Number of colours k              = 20
c Number of pre-assignments        = 20
c Degree of all vertices           = 6
c Density                          = 0.0606061
c 
c The degrees of nodes 1 to 100, respectively, are as follows 
c [6, 6, 6, 6, 6, 6, 6, 6, 6, 6, 6, 6, 6, 6, 6, 6, 6, 6, 6, 6, 6, 6, 6, 6, 6, 6, 
c  6, 6, 6, 6, 6, 6, 6, 6, 6, 6, 6, 6, 6, 6, 6, 6, 6, 6, 6, 6, 6, 6, 6, 6, 6, 
c  6, 6, 6, 6, 6, 6, 6, 6, 6, 6, 6, 6, 6, 6, 6, 6, 6, 6, 6, 6, 6, 6, 6, 6, 6, 
c  6, 6, 6, 6, 6, 6, 6, 6, 6, 6, 6, 6, 6, 6, 6, 6, 6, 6, 6, 6, 6, 6, 6, 6] 
c  
p edge 100 300 20
e 1 6
e 1 20
e 1 42
e 1 58
e 1 89
e 1 95
e 2 21
e 2 34
e 2 57
e 2 61
e 2 62
e 2 87
e 3 12
e 3 30
e 3 45
e 3 66
e 3 79
e 3 100
e 4 5
e 4 42
e 4 80
e 4 83
e 4 90
e 4 98
e 5 24
e 5 40
e 5 47
e 5 56
e 5 71
e 6 21
e 6 27
e 6 37
e 6 71
e 6 93
e 7 8
e 7 35
e 7 38
e 7 53
e 7 60
e 7 82
e 8 34
e 8 66
e 8 67
e 8 78
e 8 99
e 9 12
e 9 17
e 9 52
e 9 60
e 9 64
e 9 86
e 10 24
e 10 25
e 10 36
e 10 44
e 10 81
e 10 96
e 11 16
e 11 20
e 11 33
e 11 46
e 11 57
e 11 73
e 12 31
e 12 57
e 12 97
e 12 98
e 13 37
e 13 63
e 13 67
e 13 71
e 13 75
e 13 91
e 14 56
e 14 61
e 14 73
e 14 91
e 14 95
e 14 97
e 15 16
e 15 21
e 15 25
e 15 55
e 15 69
e 15 78
e 16 30
e 16 34
e 16 38
e 16 59
e 17 19
e 17 36
e 17 48
e 17 89
e 17 94
e 18 28
e 18 36
e 18 44
e 18 55
e 18 75
e 18 94
e 19 35
e 19 70
e 19 76
e 19 87
e 19 92
e 20 32
e 20 53
e 20 55
e 20 64
e 21 42
e 21 45
e 21 77
e 22 46
e 22 58
e 22 60
e 22 74
e 22 83
e 22 93
e 23 32
e 23 37
e 23 38
e 23 45
e 23 49
e 23 69
e 24 42
e 24 44
e 24 50
e 24 81
e 25 61
e 25 77
e 25 83
e 25 85
e 26 39
e 26 54
e 26 58
e 26 62
e 26 66
e 26 81
e 27 28
e 27 31
e 27 60
e 27 72
e 27 86
e 28 43
e 28 70
e 28 75
e 28 79
e 29 38
e 29 39
e 29 52
e 29 64
e 29 77
e 29 99
e 30 32
e 30 59
e 30 72
e 30 90
e 31 53
e 31 79
e 31 80
e 31 98
e 32 49
e 32 78
e 32 80
e 33 46
e 33 48
e 33 49
e 33 55
e 33 93
e 34 54
e 34 69
e 34 84
e 35 39
e 35 77
e 35 79
e 35 81
e 36 41
e 36 50
e 36 97
e 37 51
e 37 56
e 37 96
e 38 54
e 38 96
e 39 51
e 39 86
e 39 99
e 40 49
e 40 50
e 40 69
e 40 95
e 40 100
e 41 50
e 41 73
e 41 74
e 41 82
e 41 89
e 42 53
e 42 72
e 43 72
e 43 73
e 43 90
e 43 92
e 43 94
e 44 72
e 44 82
e 44 90
e 45 55
e 45 65
e 45 67
e 46 51
e 46 81
e 46 88
e 47 49
e 47 61
e 47 68
e 47 91
e 47 99
e 48 52
e 48 66
e 48 75
e 48 93
e 49 54
e 50 93
e 50 96
e 51 71
e 51 74
e 51 92
e 52 63
e 52 68
e 52 100
e 53 69
e 53 74
e 54 80
e 54 87
e 55 98
e 56 79
e 56 81
e 56 94
e 57 71
e 57 83
e 57 92
e 58 76
e 58 92
e 58 94
e 59 61
e 59 62
e 59 85
e 59 86
e 60 95
e 60 99
e 61 84
e 62 65
e 62 87
e 62 98
e 63 68
e 63 89
e 63 90
e 63 95
e 64 65
e 64 72
e 64 94
e 65 67
e 65 79
e 65 82
e 66 68
e 66 88
e 67 68
e 67 69
e 68 83
e 70 74
e 70 88
e 70 91
e 70 98
e 71 76
e 73 86
e 73 100
e 74 88
e 75 84
e 75 92
e 76 84
e 76 85
e 76 97
e 77 84
e 77 85
e 78 84
e 78 88
e 78 96
e 80 97
e 80 100
e 82 85
e 82 96
e 83 91
e 85 86
e 87 88
e 87 99
e 89 90
e 89 97
e 91 100
e 93 95
n 7 12
n 11 6
n 14 7
n 15 13
n 19 2
n 32 17
n 40 1
n 42 19
n 43 5
n 47 4
n 52 9
n 54 10
n 58 16
n 62 8
n 67 20
n 74 11
n 79 18
n 83 3
n 85 15
n 96 14
